p edge 135 2916 108
e 1 2
e 1 3
e 1 4
e 1 5
e 1 6
e 1 7
e 1 8
e 1 9
e 1 10
e 1 11
e 1 12
e 1 13
e 1 14
e 1 15
e 1 16
e 1 17
e 1 18
e 1 19
e 1 20
e 1 21
e 1 22
e 1 23
e 1 24
e 1 25
e 1 26
e 1 27
e 1 28
e 1 29
e 1 30
e 1 31
e 1 32
e 1 33
e 1 34
e 1 35
e 1 36
e 1 37
e 1 38
e 1 39
e 1 40
e 1 41
e 1 42
e 1 43
e 1 44
e 1 46
e 1 47
e 1 48
e 1 49
e 1 50
e 1 51
e 1 52
e 1 53
e 1 54
e 1 56
e 1 57
e 1 58
e 1 59
e 1 61
e 1 62
e 1 63
e 1 64
e 1 66
e 1 67
e 1 69
e 1 70
e 1 71
e 1 73
e 1 74
e 1 76
e 1 77
e 1 78
e 1 79
e 1 81
e 1 84
e 1 85
e 1 87
e 1 89
e 1 90
e 1 91
e 1 92
e 1 93
e 1 96
e 1 102
e 1 103
e 1 105
e 1 106
e 1 111
e 1 114
e 1 118
e 1 120
e 1 122
e 1 124
e 1 132
e 1 133
e 2 29
e 2 30
e 2 31
e 2 32
e 2 33
e 2 34
e 2 35
e 2 36
e 2 38
e 2 39
e 2 41
e 2 42
e 2 43
e 2 50
e 2 52
e 2 57
e 2 58
e 2 61
e 2 62
e 2 65
e 2 66
e 2 67
e 2 73
e 2 77
e 2 80
e 2 83
e 2 89
e 2 94
e 2 98
e 2 99
e 2 103
e 2 107
e 2 109
e 2 110
e 2 126
e 2 128
e 2 131
e 2 132
e 2 134
e 3 29
e 3 30
e 3 31
e 3 32
e 3 33
e 3 36
e 3 38
e 3 40
e 3 41
e 3 42
e 3 43
e 3 48
e 3 53
e 3 58
e 3 60
e 3 62
e 3 63
e 3 64
e 3 65
e 3 68
e 3 76
e 3 87
e 3 88
e 3 105
e 3 111
e 3 117
e 3 120
e 3 126
e 3 128
e 3 131
e 3 132
e 3 134
e 4 29
e 4 30
e 4 31
e 4 33
e 4 34
e 4 35
e 4 36
e 4 37
e 4 38
e 4 41
e 4 42
e 4 43
e 4 44
e 4 45
e 4 49
e 4 50
e 4 52
e 4 53
e 4 65
e 4 69
e 4 85
e 4 86
e 4 89
e 4 90
e 4 100
e 4 103
e 4 107
e 4 114
e 4 128
e 5 29
e 5 30
e 5 31
e 5 33
e 5 34
e 5 35
e 5 37
e 5 38
e 5 45
e 5 49
e 5 51
e 5 53
e 5 55
e 5 56
e 5 57
e 5 58
e 5 62
e 5 65
e 5 66
e 5 69
e 5 72
e 5 76
e 5 79
e 5 87
e 5 90
e 5 93
e 5 97
e 5 98
e 5 100
e 5 101
e 5 102
e 5 104
e 5 110
e 5 113
e 5 118
e 5 119
e 5 121
e 5 122
e 5 125
e 5 128
e 5 133
e 6 29
e 6 30
e 6 31
e 6 32
e 6 33
e 6 35
e 6 36
e 6 40
e 6 42
e 6 44
e 6 46
e 6 48
e 6 50
e 6 56
e 6 58
e 6 68
e 6 71
e 6 72
e 6 75
e 6 76
e 6 77
e 6 84
e 6 85
e 6 87
e 6 89
e 6 90
e 6 97
e 6 110
e 6 117
e 7 29
e 7 30
e 7 31
e 7 32
e 7 33
e 7 34
e 7 35
e 7 39
e 7 40
e 7 46
e 7 47
e 7 49
e 7 50
e 7 52
e 7 54
e 7 55
e 7 64
e 7 72
e 7 77
e 7 78
e 7 79
e 7 91
e 7 97
e 7 108
e 7 109
e 7 113
e 7 118
e 7 122
e 8 29
e 8 30
e 8 31
e 8 32
e 8 33
e 8 34
e 8 36
e 8 37
e 8 38
e 8 40
e 8 41
e 8 43
e 8 44
e 8 46
e 8 47
e 8 49
e 8 50
e 8 56
e 8 57
e 8 63
e 8 69
e 8 71
e 8 79
e 8 80
e 8 87
e 8 93
e 8 96
e 8 98
e 8 100
e 8 101
e 8 116
e 8 123
e 8 124
e 8 129
e 9 29
e 9 30
e 9 31
e 9 32
e 9 33
e 9 34
e 9 35
e 9 36
e 9 37
e 9 38
e 9 39
e 9 40
e 9 41
e 9 42
e 9 44
e 9 45
e 9 48
e 9 51
e 9 52
e 9 53
e 9 55
e 9 57
e 9 60
e 9 62
e 9 64
e 9 66
e 9 68
e 9 73
e 9 76
e 9 77
e 9 80
e 9 84
e 9 86
e 9 99
e 9 113
e 9 115
e 9 124
e 9 126
e 9 127
e 9 128
e 9 133
e 10 29
e 10 30
e 10 31
e 10 32
e 10 33
e 10 34
e 10 35
e 10 37
e 10 38
e 10 39
e 10 43
e 10 45
e 10 46
e 10 47
e 10 49
e 10 50
e 10 51
e 10 52
e 10 54
e 10 55
e 10 57
e 10 61
e 10 62
e 10 64
e 10 65
e 10 67
e 10 70
e 10 71
e 10 73
e 10 75
e 10 77
e 10 83
e 10 91
e 10 92
e 10 99
e 10 106
e 10 109
e 10 117
e 10 119
e 10 121
e 10 126
e 10 127
e 10 128
e 11 29
e 11 30
e 11 31
e 11 32
e 11 33
e 11 34
e 11 37
e 11 38
e 11 39
e 11 40
e 11 45
e 11 48
e 11 52
e 11 57
e 11 59
e 11 64
e 11 65
e 11 66
e 11 67
e 11 68
e 11 70
e 11 75
e 11 79
e 11 103
e 11 104
e 11 105
e 11 114
e 11 120
e 11 126
e 11 130
e 11 135
e 12 29
e 12 30
e 12 31
e 12 32
e 12 33
e 12 34
e 12 35
e 12 36
e 12 37
e 12 38
e 12 42
e 12 45
e 12 49
e 12 52
e 12 53
e 12 55
e 12 57
e 12 59
e 12 61
e 12 63
e 12 67
e 12 68
e 12 69
e 12 73
e 12 74
e 12 82
e 12 84
e 12 99
e 12 103
e 12 105
e 12 112
e 12 121
e 12 125
e 12 130
e 13 29
e 13 30
e 13 31
e 13 32
e 13 33
e 13 34
e 13 35
e 13 36
e 13 37
e 13 39
e 13 41
e 13 42
e 13 44
e 13 46
e 13 47
e 13 50
e 13 52
e 13 54
e 13 55
e 13 56
e 13 58
e 13 59
e 13 62
e 13 71
e 13 73
e 13 75
e 13 76
e 13 77
e 13 78
e 13 84
e 13 95
e 13 105
e 13 108
e 13 115
e 13 119
e 13 120
e 13 122
e 13 134
e 14 29
e 14 30
e 14 31
e 14 32
e 14 33
e 14 34
e 14 35
e 14 36
e 14 38
e 14 39
e 14 40
e 14 41
e 14 42
e 14 43
e 14 47
e 14 48
e 14 49
e 14 51
e 14 53
e 14 54
e 14 56
e 14 58
e 14 59
e 14 61
e 14 63
e 14 65
e 14 70
e 14 72
e 14 74
e 14 78
e 14 79
e 14 80
e 14 86
e 14 87
e 14 89
e 14 91
e 14 92
e 14 99
e 14 100
e 14 101
e 14 105
e 14 106
e 14 107
e 14 109
e 14 111
e 14 112
e 14 116
e 14 120
e 14 123
e 14 126
e 14 131
e 15 29
e 15 30
e 15 32
e 15 33
e 15 34
e 15 36
e 15 38
e 15 39
e 15 40
e 15 41
e 15 44
e 15 48
e 15 51
e 15 52
e 15 56
e 15 59
e 15 60
e 15 68
e 15 75
e 15 81
e 15 89
e 15 94
e 15 96
e 15 97
e 15 102
e 15 103
e 15 121
e 15 122
e 15 127
e 15 130
e 16 29
e 16 30
e 16 31
e 16 32
e 16 34
e 16 35
e 16 36
e 16 37
e 16 38
e 16 39
e 16 41
e 16 43
e 16 44
e 16 46
e 16 48
e 16 50
e 16 51
e 16 55
e 16 59
e 16 65
e 16 66
e 16 67
e 16 71
e 16 73
e 16 100
e 16 102
e 16 108
e 16 110
e 16 114
e 17 29
e 17 30
e 17 31
e 17 32
e 17 33
e 17 34
e 17 35
e 17 36
e 17 37
e 17 39
e 17 40
e 17 41
e 17 43
e 17 47
e 17 48
e 17 49
e 17 51
e 17 55
e 17 57
e 17 60
e 17 62
e 17 66
e 17 67
e 17 68
e 17 69
e 17 72
e 17 73
e 17 74
e 17 75
e 17 82
e 17 84
e 17 85
e 17 88
e 17 100
e 17 105
e 17 106
e 17 107
e 17 109
e 17 111
e 17 112
e 17 113
e 17 116
e 17 117
e 17 118
e 17 121
e 17 124
e 17 131
e 17 133
e 18 29
e 18 31
e 18 33
e 18 35
e 18 37
e 18 40
e 18 41
e 18 45
e 18 54
e 18 55
e 18 57
e 18 59
e 18 64
e 18 66
e 18 70
e 18 71
e 18 79
e 18 80
e 18 82
e 18 83
e 18 84
e 18 94
e 18 106
e 18 107
e 18 113
e 18 121
e 18 123
e 18 133
e 18 134
e 19 29
e 19 30
e 19 31
e 19 32
e 19 33
e 19 34
e 19 35
e 19 36
e 19 37
e 19 38
e 19 39
e 19 40
e 19 41
e 19 42
e 19 45
e 19 51
e 19 52
e 19 54
e 19 60
e 19 64
e 19 67
e 19 70
e 19 72
e 19 93
e 19 112
e 19 117
e 19 120
e 19 125
e 19 127
e 19 131
e 19 133
e 20 29
e 20 30
e 20 31
e 20 32
e 20 33
e 20 35
e 20 37
e 20 38
e 20 43
e 20 45
e 20 46
e 20 47
e 20 53
e 20 54
e 20 59
e 20 63
e 20 65
e 20 67
e 20 68
e 20 75
e 20 76
e 20 77
e 20 85
e 20 86
e 20 88
e 20 89
e 20 100
e 20 111
e 20 118
e 20 122
e 20 129
e 21 29
e 21 30
e 21 32
e 21 33
e 21 34
e 21 36
e 21 39
e 21 41
e 21 42
e 21 44
e 21 45
e 21 46
e 21 49
e 21 50
e 21 52
e 21 53
e 21 56
e 21 59
e 21 60
e 21 63
e 21 65
e 21 70
e 21 72
e 21 74
e 21 84
e 21 100
e 21 101
e 21 104
e 21 108
e 21 112
e 21 122
e 21 124
e 21 127
e 21 128
e 21 134
e 22 29
e 22 30
e 22 31
e 22 32
e 22 33
e 22 35
e 22 36
e 22 39
e 22 40
e 22 41
e 22 42
e 22 43
e 22 44
e 22 46
e 22 48
e 22 52
e 22 56
e 22 61
e 22 62
e 22 68
e 22 70
e 22 72
e 22 74
e 22 77
e 22 94
e 22 97
e 22 101
e 22 112
e 22 115
e 22 122
e 22 129
e 23 29
e 23 30
e 23 31
e 23 32
e 23 33
e 23 35
e 23 36
e 23 37
e 23 38
e 23 39
e 23 40
e 23 42
e 23 43
e 23 44
e 23 46
e 23 48
e 23 53
e 23 54
e 23 69
e 23 72
e 23 73
e 23 75
e 23 76
e 23 79
e 23 82
e 23 87
e 23 98
e 23 104
e 23 107
e 23 110
e 23 114
e 23 115
e 23 121
e 23 123
e 23 127
e 24 29
e 24 30
e 24 31
e 24 32
e 24 34
e 24 37
e 24 40
e 24 41
e 24 44
e 24 47
e 24 49
e 24 54
e 24 56
e 24 60
e 24 66
e 24 67
e 24 69
e 24 71
e 24 73
e 24 76
e 24 80
e 24 83
e 24 84
e 24 87
e 24 95
e 24 96
e 24 102
e 24 103
e 24 107
e 24 111
e 24 112
e 24 115
e 24 116
e 24 117
e 24 131
e 24 135
e 25 29
e 25 34
e 25 35
e 25 37
e 25 38
e 25 42
e 25 44
e 25 46
e 25 48
e 25 53
e 25 56
e 25 59
e 25 60
e 25 64
e 25 67
e 25 69
e 25 75
e 25 92
e 25 96
e 25 99
e 25 112
e 25 116
e 25 120
e 25 123
e 25 126
e 26 29
e 26 30
e 26 31
e 26 32
e 26 33
e 26 34
e 26 35
e 26 36
e 26 37
e 26 38
e 26 39
e 26 40
e 26 42
e 26 43
e 26 44
e 26 45
e 26 46
e 26 47
e 26 48
e 26 49
e 26 51
e 26 53
e 26 54
e 26 55
e 26 57
e 26 59
e 26 64
e 26 65
e 26 70
e 26 71
e 26 74
e 26 75
e 26 77
e 26 81
e 26 85
e 26 86
e 26 88
e 26 91
e 26 92
e 26 93
e 26 95
e 26 96
e 26 100
e 26 102
e 26 103
e 26 110
e 26 113
e 26 114
e 26 115
e 26 116
e 26 117
e 26 118
e 26 132
e 26 133
e 27 30
e 27 31
e 27 32
e 27 34
e 27 36
e 27 40
e 27 43
e 27 45
e 27 47
e 27 48
e 27 51
e 27 52
e 27 57
e 27 61
e 27 62
e 27 63
e 27 67
e 27 69
e 27 75
e 27 77
e 27 90
e 27 94
e 27 95
e 27 97
e 27 104
e 27 105
e 27 107
e 27 110
e 27 113
e 27 117
e 27 119
e 27 132
e 27 135
e 28 29
e 28 30
e 28 31
e 28 32
e 28 34
e 28 35
e 28 36
e 28 37
e 28 39
e 28 40
e 28 43
e 28 47
e 28 48
e 28 50
e 28 51
e 28 52
e 28 55
e 28 57
e 28 58
e 28 60
e 28 61
e 28 66
e 28 70
e 28 73
e 28 79
e 28 83
e 28 86
e 28 98
e 28 99
e 28 107
e 28 111
e 28 119
e 28 121
e 28 128
e 29 30
e 29 31
e 29 32
e 29 33
e 29 34
e 29 35
e 29 36
e 29 37
e 29 38
e 29 39
e 29 40
e 29 41
e 29 42
e 29 43
e 29 44
e 29 45
e 29 46
e 29 47
e 29 48
e 29 49
e 29 51
e 29 54
e 29 55
e 29 56
e 29 58
e 29 59
e 29 60
e 29 61
e 29 62
e 29 65
e 29 68
e 29 72
e 29 73
e 29 78
e 29 81
e 29 82
e 29 85
e 29 86
e 29 88
e 29 89
e 29 91
e 29 93
e 29 94
e 29 98
e 29 99
e 29 101
e 29 102
e 29 110
e 29 112
e 29 113
e 29 114
e 29 115
e 29 116
e 29 117
e 29 118
e 29 119
e 29 121
e 29 123
e 29 124
e 29 125
e 29 126
e 29 127
e 29 130
e 29 134
e 29 135
e 30 31
e 30 32
e 30 33
e 30 34
e 30 35
e 30 36
e 30 37
e 30 38
e 30 39
e 30 40
e 30 41
e 30 42
e 30 43
e 30 44
e 30 45
e 30 46
e 30 48
e 30 49
e 30 51
e 30 52
e 30 53
e 30 54
e 30 55
e 30 56
e 30 59
e 30 60
e 30 61
e 30 62
e 30 64
e 30 65
e 30 68
e 30 76
e 30 78
e 30 79
e 30 82
e 30 85
e 30 87
e 30 89
e 30 92
e 30 97
e 30 98
e 30 99
e 30 102
e 30 103
e 30 107
e 30 108
e 30 113
e 30 119
e 30 121
e 30 122
e 30 125
e 30 128
e 30 132
e 30 133
e 31 32
e 31 33
e 31 34
e 31 35
e 31 36
e 31 37
e 31 38
e 31 39
e 31 40
e 31 42
e 31 43
e 31 44
e 31 45
e 31 47
e 31 48
e 31 49
e 31 50
e 31 51
e 31 52
e 31 53
e 31 54
e 31 56
e 31 58
e 31 59
e 31 60
e 31 61
e 31 62
e 31 66
e 31 68
e 31 69
e 31 72
e 31 78
e 31 79
e 31 81
e 31 82
e 31 83
e 31 84
e 31 85
e 31 86
e 31 88
e 31 89
e 31 91
e 31 98
e 31 100
e 31 103
e 31 104
e 31 105
e 31 106
e 31 108
e 31 111
e 31 115
e 31 116
e 31 118
e 31 123
e 31 125
e 31 128
e 31 131
e 31 132
e 31 133
e 31 134
e 32 33
e 32 34
e 32 35
e 32 36
e 32 37
e 32 38
e 32 39
e 32 40
e 32 41
e 32 42
e 32 43
e 32 44
e 32 45
e 32 47
e 32 48
e 32 49
e 32 51
e 32 54
e 32 58
e 32 59
e 32 63
e 32 64
e 32 65
e 32 70
e 32 74
e 32 76
e 32 78
e 32 88
e 32 90
e 32 91
e 32 93
e 32 95
e 32 98
e 32 101
e 32 102
e 32 108
e 32 109
e 32 112
e 32 113
e 32 117
e 32 125
e 32 135
e 33 34
e 33 35
e 33 36
e 33 37
e 33 38
e 33 39
e 33 41
e 33 42
e 33 43
e 33 44
e 33 45
e 33 46
e 33 47
e 33 49
e 33 50
e 33 51
e 33 53
e 33 54
e 33 55
e 33 56
e 33 57
e 33 58
e 33 60
e 33 61
e 33 62
e 33 63
e 33 64
e 33 73
e 33 75
e 33 76
e 33 77
e 33 78
e 33 81
e 33 83
e 33 84
e 33 86
e 33 88
e 33 92
e 33 93
e 33 94
e 33 95
e 33 103
e 33 109
e 33 111
e 33 113
e 33 115
e 33 116
e 33 117
e 33 119
e 33 120
e 33 122
e 33 127
e 33 129
e 33 130
e 33 133
e 33 135
e 34 35
e 34 36
e 34 37
e 34 38
e 34 39
e 34 40
e 34 41
e 34 42
e 34 43
e 34 44
e 34 45
e 34 46
e 34 48
e 34 49
e 34 50
e 34 51
e 34 52
e 34 53
e 34 54
e 34 55
e 34 58
e 34 61
e 34 62
e 34 63
e 34 65
e 34 68
e 34 69
e 34 71
e 34 74
e 34 77
e 34 80
e 34 81
e 34 82
e 34 85
e 34 88
e 34 89
e 34 92
e 34 93
e 34 95
e 34 96
e 34 100
e 34 102
e 34 103
e 34 106
e 34 109
e 34 113
e 34 117
e 34 120
e 34 121
e 34 123
e 34 124
e 34 127
e 34 130
e 34 131
e 34 134
e 34 135
e 35 36
e 35 37
e 35 38
e 35 39
e 35 40
e 35 41
e 35 42
e 35 43
e 35 44
e 35 45
e 35 46
e 35 47
e 35 49
e 35 50
e 35 51
e 35 52
e 35 53
e 35 54
e 35 55
e 35 56
e 35 57
e 35 58
e 35 59
e 35 60
e 35 62
e 35 64
e 35 65
e 35 67
e 35 68
e 35 69
e 35 70
e 35 72
e 35 73
e 35 74
e 35 76
e 35 77
e 35 78
e 35 79
e 35 80
e 35 81
e 35 84
e 35 85
e 35 90
e 35 92
e 35 93
e 35 95
e 35 99
e 35 101
e 35 103
e 35 104
e 35 105
e 35 106
e 35 109
e 35 111
e 35 113
e 35 118
e 35 119
e 35 121
e 35 126
e 35 130
e 35 132
e 36 37
e 36 38
e 36 39
e 36 40
e 36 41
e 36 42
e 36 43
e 36 44
e 36 45
e 36 46
e 36 47
e 36 48
e 36 49
e 36 50
e 36 51
e 36 52
e 36 53
e 36 54
e 36 55
e 36 56
e 36 58
e 36 59
e 36 60
e 36 63
e 36 64
e 36 65
e 36 66
e 36 67
e 36 68
e 36 70
e 36 71
e 36 72
e 36 73
e 36 74
e 36 75
e 36 77
e 36 79
e 36 81
e 36 82
e 36 85
e 36 86
e 36 87
e 36 89
e 36 91
e 36 93
e 36 94
e 36 95
e 36 96
e 36 98
e 36 99
e 36 102
e 36 104
e 36 105
e 36 109
e 36 116
e 36 117
e 36 118
e 36 121
e 36 128
e 36 129
e 36 130
e 36 132
e 36 134
e 37 38
e 37 39
e 37 40
e 37 41
e 37 42
e 37 44
e 37 45
e 37 46
e 37 47
e 37 48
e 37 51
e 37 52
e 37 53
e 37 54
e 37 55
e 37 56
e 37 57
e 37 58
e 37 60
e 37 61
e 37 63
e 37 64
e 37 65
e 37 66
e 37 67
e 37 68
e 37 70
e 37 75
e 37 77
e 37 78
e 37 79
e 37 80
e 37 82
e 37 85
e 37 86
e 37 87
e 37 88
e 37 89
e 37 90
e 37 91
e 37 92
e 37 93
e 37 94
e 37 95
e 37 98
e 37 99
e 37 104
e 37 105
e 37 106
e 37 110
e 37 111
e 37 114
e 37 115
e 37 119
e 37 121
e 37 124
e 37 126
e 37 128
e 37 129
e 37 131
e 37 132
e 38 39
e 38 41
e 38 42
e 38 44
e 38 45
e 38 46
e 38 47
e 38 50
e 38 53
e 38 55
e 38 57
e 38 58
e 38 61
e 38 66
e 38 67
e 38 69
e 38 74
e 38 79
e 38 81
e 38 87
e 38 89
e 38 101
e 38 104
e 38 119
e 38 123
e 38 130
e 39 40
e 39 41
e 39 42
e 39 43
e 39 44
e 39 45
e 39 46
e 39 47
e 39 49
e 39 50
e 39 51
e 39 52
e 39 53
e 39 54
e 39 56
e 39 59
e 39 60
e 39 62
e 39 63
e 39 64
e 39 65
e 39 67
e 39 69
e 39 70
e 39 75
e 39 76
e 39 77
e 39 80
e 39 81
e 39 82
e 39 83
e 39 87
e 39 88
e 39 89
e 39 90
e 39 91
e 39 92
e 39 93
e 39 95
e 39 96
e 39 97
e 39 98
e 39 99
e 39 104
e 39 105
e 39 106
e 39 112
e 39 122
e 39 128
e 39 129
e 39 133
e 39 135
e 40 41
e 40 42
e 40 43
e 40 44
e 40 45
e 40 46
e 40 47
e 40 48
e 40 50
e 40 51
e 40 52
e 40 55
e 40 56
e 40 58
e 40 61
e 40 63
e 40 64
e 40 66
e 40 67
e 40 69
e 40 71
e 40 72
e 40 73
e 40 74
e 40 79
e 40 81
e 40 82
e 40 84
e 40 86
e 40 87
e 40 88
e 40 90
e 40 94
e 40 96
e 40 97
e 40 103
e 40 105
e 40 109
e 40 110
e 40 112
e 40 113
e 40 120
e 40 124
e 40 126
e 40 131
e 40 133
e 41 43
e 41 44
e 41 45
e 41 46
e 41 47
e 41 48
e 41 50
e 41 51
e 41 53
e 41 55
e 41 57
e 41 58
e 41 60
e 41 61
e 41 62
e 41 63
e 41 65
e 41 66
e 41 69
e 41 73
e 41 77
e 41 78
e 41 79
e 41 83
e 41 85
e 41 92
e 41 96
e 41 97
e 41 101
e 41 114
e 41 116
e 41 124
e 41 128
e 41 134
e 42 43
e 42 45
e 42 46
e 42 47
e 42 50
e 42 53
e 42 54
e 42 55
e 42 58
e 42 62
e 42 67
e 42 72
e 42 76
e 42 78
e 42 80
e 42 82
e 42 83
e 42 84
e 42 87
e 42 89
e 42 93
e 42 96
e 42 101
e 42 102
e 42 109
e 42 110
e 42 115
e 42 119
e 42 120
e 42 123
e 42 134
e 42 135
e 43 45
e 43 46
e 43 48
e 43 49
e 43 50
e 43 51
e 43 52
e 43 53
e 43 54
e 43 56
e 43 57
e 43 59
e 43 60
e 43 61
e 43 62
e 43 63
e 43 64
e 43 69
e 43 71
e 43 72
e 43 74
e 43 80
e 43 81
e 43 84
e 43 86
e 43 88
e 43 89
e 43 90
e 43 94
e 43 107
e 43 116
e 43 118
e 43 123
e 43 125
e 43 126
e 43 127
e 43 128
e 43 130
e 43 132
e 43 134
e 44 46
e 44 47
e 44 48
e 44 49
e 44 50
e 44 54
e 44 56
e 44 58
e 44 59
e 44 60
e 44 61
e 44 62
e 44 66
e 44 68
e 44 69
e 44 70
e 44 71
e 44 73
e 44 75
e 44 76
e 44 79
e 44 82
e 44 84
e 44 85
e 44 87
e 44 90
e 44 91
e 44 94
e 44 97
e 44 99
e 44 114
e 44 116
e 44 122
e 44 124
e 44 135
e 45 47
e 45 49
e 45 50
e 45 51
e 45 53
e 45 56
e 45 57
e 45 61
e 45 62
e 45 65
e 45 67
e 45 70
e 45 76
e 45 77
e 45 78
e 45 79
e 45 80
e 45 82
e 45 86
e 45 91
e 45 92
e 45 93
e 45 95
e 45 98
e 45 104
e 45 105
e 45 106
e 45 115
e 45 116
e 45 117
e 45 119
e 45 120
e 45 121
e 45 124
e 45 125
e 45 126
e 45 127
e 46 47
e 46 49
e 46 50
e 46 54
e 46 56
e 46 57
e 46 60
e 46 62
e 46 63
e 46 64
e 46 76
e 46 78
e 46 81
e 46 83
e 46 86
e 46 87
e 46 90
e 46 94
e 46 96
e 46 97
e 46 100
e 46 101
e 46 105
e 46 109
e 46 110
e 46 111
e 46 112
e 46 121
e 46 127
e 46 131
e 46 132
e 46 133
e 47 48
e 47 49
e 47 50
e 47 51
e 47 55
e 47 56
e 47 60
e 47 61
e 47 63
e 47 67
e 47 68
e 47 69
e 47 73
e 47 74
e 47 80
e 47 81
e 47 83
e 47 84
e 47 85
e 47 89
e 47 90
e 47 94
e 47 95
e 47 96
e 47 99
e 47 101
e 47 105
e 47 106
e 47 108
e 47 118
e 47 129
e 47 130
e 47 132
e 47 134
e 48 49
e 48 52
e 48 54
e 48 55
e 48 57
e 48 58
e 48 59
e 48 63
e 48 69
e 48 71
e 48 72
e 48 74
e 48 76
e 48 77
e 48 78
e 48 80
e 48 85
e 48 89
e 48 99
e 48 100
e 48 101
e 48 104
e 48 105
e 48 107
e 48 111
e 48 123
e 48 127
e 48 130
e 48 131
e 48 134
e 49 50
e 49 52
e 49 53
e 49 55
e 49 57
e 49 58
e 49 59
e 49 62
e 49 63
e 49 66
e 49 67
e 49 69
e 49 70
e 49 72
e 49 73
e 49 76
e 49 78
e 49 83
e 49 85
e 49 88
e 49 91
e 49 92
e 49 94
e 49 96
e 49 99
e 49 100
e 49 103
e 49 104
e 49 106
e 49 107
e 49 108
e 49 110
e 49 112
e 49 114
e 49 129
e 50 56
e 50 60
e 50 61
e 50 64
e 50 66
e 50 67
e 50 72
e 50 73
e 50 74
e 50 78
e 50 80
e 50 81
e 50 82
e 50 85
e 50 87
e 50 88
e 50 90
e 50 92
e 50 94
e 50 97
e 50 98
e 50 105
e 50 109
e 50 111
e 50 114
e 50 122
e 50 125
e 50 127
e 50 128
e 50 129
e 51 52
e 51 53
e 51 56
e 51 58
e 51 63
e 51 70
e 51 72
e 51 82
e 51 83
e 51 85
e 51 86
e 51 89
e 51 91
e 51 93
e 51 104
e 51 107
e 51 110
e 51 114
e 51 119
e 51 120
e 51 131
e 51 135
e 52 54
e 52 55
e 52 57
e 52 61
e 52 66
e 52 68
e 52 69
e 52 70
e 52 73
e 52 75
e 52 76
e 52 77
e 52 79
e 52 80
e 52 92
e 52 93
e 52 94
e 52 95
e 52 98
e 52 102
e 52 115
e 52 116
e 52 118
e 52 122
e 52 123
e 52 124
e 52 129
e 53 57
e 53 58
e 53 59
e 53 60
e 53 63
e 53 64
e 53 65
e 53 66
e 53 69
e 53 70
e 53 71
e 53 73
e 53 74
e 53 76
e 53 78
e 53 84
e 53 89
e 53 92
e 53 94
e 53 95
e 53 101
e 53 102
e 53 106
e 53 108
e 53 111
e 53 114
e 53 118
e 53 120
e 53 123
e 53 126
e 53 130
e 53 133
e 53 134
e 54 55
e 54 58
e 54 59
e 54 61
e 54 62
e 54 65
e 54 66
e 54 76
e 54 77
e 54 78
e 54 81
e 54 84
e 54 86
e 54 91
e 54 100
e 54 103
e 54 109
e 54 111
e 54 115
e 54 117
e 54 119
e 54 120
e 54 123
e 54 128
e 54 130
e 54 131
e 54 132
e 55 57
e 55 61
e 55 64
e 55 70
e 55 74
e 55 79
e 55 80
e 55 81
e 55 85
e 55 86
e 55 87
e 55 88
e 55 90
e 55 91
e 55 92
e 55 97
e 55 104
e 55 105
e 55 106
e 55 108
e 55 117
e 55 120
e 55 122
e 55 131
e 56 57
e 56 58
e 56 60
e 56 61
e 56 62
e 56 63
e 56 64
e 56 66
e 56 68
e 56 71
e 56 72
e 56 74
e 56 76
e 56 79
e 56 81
e 56 82
e 56 83
e 56 89
e 56 90
e 56 91
e 56 94
e 56 96
e 56 104
e 56 106
e 56 107
e 56 110
e 56 111
e 56 118
e 56 120
e 56 122
e 56 124
e 56 125
e 56 127
e 56 128
e 56 130
e 56 132
e 57 59
e 57 63
e 57 64
e 57 66
e 57 68
e 57 70
e 57 72
e 57 75
e 57 76
e 57 81
e 57 86
e 57 88
e 57 89
e 57 90
e 57 91
e 57 95
e 57 96
e 57 97
e 57 99
e 57 100
e 57 105
e 57 107
e 57 110
e 57 118
e 57 119
e 57 120
e 57 124
e 57 126
e 57 127
e 57 129
e 57 134
e 58 59
e 58 60
e 58 61
e 58 64
e 58 65
e 58 66
e 58 67
e 58 68
e 58 69
e 58 71
e 58 72
e 58 73
e 58 75
e 58 76
e 58 78
e 58 79
e 58 82
e 58 84
e 58 87
e 58 88
e 58 91
e 58 97
e 58 106
e 58 108
e 58 109
e 58 112
e 58 117
e 58 120
e 58 125
e 58 130
e 58 131
e 58 132
e 58 135
e 59 60
e 59 63
e 59 65
e 59 66
e 59 67
e 59 68
e 59 69
e 59 71
e 59 74
e 59 75
e 59 81
e 59 82
e 59 83
e 59 91
e 59 96
e 59 99
e 59 101
e 59 102
e 59 103
e 59 112
e 59 119
e 59 121
e 59 124
e 59 127
e 59 129
e 59 130
e 59 135
e 60 62
e 60 68
e 60 71
e 60 72
e 60 75
e 60 76
e 60 80
e 60 83
e 60 84
e 60 91
e 60 93
e 60 99
e 60 100
e 60 102
e 60 104
e 60 105
e 60 107
e 60 108
e 60 109
e 60 112
e 60 122
e 60 127
e 61 63
e 61 64
e 61 70
e 61 71
e 61 72
e 61 75
e 61 78
e 61 80
e 61 82
e 61 87
e 61 91
e 61 92
e 61 94
e 61 96
e 61 99
e 61 101
e 61 103
e 61 106
e 61 107
e 61 108
e 61 113
e 61 115
e 61 116
e 61 119
e 61 120
e 61 122
e 61 130
e 61 134
e 62 65
e 62 71
e 62 74
e 62 75
e 62 79
e 62 81
e 62 83
e 62 84
e 62 86
e 62 96
e 62 97
e 62 101
e 62 102
e 62 114
e 62 115
e 62 128
e 62 129
e 62 130
e 62 134
e 63 65
e 63 66
e 63 68
e 63 71
e 63 74
e 63 80
e 63 83
e 63 86
e 63 87
e 63 96
e 63 97
e 63 107
e 63 108
e 63 113
e 63 117
e 63 119
e 63 124
e 63 132
e 63 135
e 64 68
e 64 71
e 64 73
e 64 77
e 64 79
e 64 80
e 64 83
e 64 88
e 64 95
e 64 97
e 64 98
e 64 100
e 64 104
e 64 105
e 64 109
e 64 110
e 64 112
e 64 115
e 64 123
e 64 125
e 65 67
e 65 68
e 65 69
e 65 70
e 65 82
e 65 85
e 65 86
e 65 88
e 65 90
e 65 97
e 65 99
e 65 100
e 65 102
e 65 104
e 65 106
e 65 107
e 65 109
e 65 111
e 65 114
e 65 123
e 65 125
e 65 126
e 66 67
e 66 70
e 66 71
e 66 77
e 66 78
e 66 80
e 66 81
e 66 82
e 66 83
e 66 93
e 66 95
e 66 96
e 66 99
e 66 103
e 66 105
e 66 108
e 66 109
e 66 119
e 66 122
e 66 123
e 66 126
e 66 133
e 66 134
e 67 70
e 67 73
e 67 78
e 67 81
e 67 83
e 67 85
e 67 89
e 67 92
e 67 95
e 67 101
e 67 103
e 67 106
e 67 107
e 67 112
e 67 117
e 67 118
e 67 121
e 67 124
e 67 125
e 67 133
e 68 73
e 68 74
e 68 78
e 68 80
e 68 81
e 68 82
e 68 83
e 68 91
e 68 93
e 68 94
e 68 101
e 68 102
e 68 112
e 68 113
e 68 114
e 68 116
e 68 129
e 69 71
e 69 75
e 69 80
e 69 90
e 69 96
e 69 102
e 69 106
e 69 107
e 69 113
e 69 116
e 70 71
e 70 72
e 70 74
e 70 75
e 70 77
e 70 80
e 70 82
e 70 83
e 70 92
e 70 97
e 70 101
e 70 109
e 70 112
e 70 115
e 70 119
e 70 131
e 70 133
e 70 134
e 71 72
e 71 74
e 71 79
e 71 85
e 71 88
e 71 91
e 71 92
e 71 93
e 71 95
e 71 96
e 71 98
e 71 100
e 71 106
e 71 109
e 71 110
e 71 111
e 71 112
e 71 115
e 71 118
e 71 119
e 71 121
e 72 75
e 72 78
e 72 79
e 72 84
e 72 87
e 72 88
e 72 92
e 72 94
e 72 96
e 72 100
e 72 101
e 72 104
e 72 108
e 72 111
e 72 113
e 72 121
e 72 129
e 72 134
e 73 74
e 73 77
e 73 82
e 73 86
e 73 93
e 73 95
e 73 101
e 73 108
e 73 117
e 73 124
e 73 125
e 73 126
e 74 75
e 74 83
e 74 88
e 74 91
e 74 98
e 74 102
e 74 108
e 74 113
e 74 114
e 74 116
e 74 118
e 74 120
e 74 127
e 75 78
e 75 80
e 75 81
e 75 84
e 75 85
e 75 86
e 75 88
e 75 89
e 75 90
e 75 94
e 75 97
e 75 103
e 75 110
e 75 112
e 75 115
e 75 124
e 75 125
e 75 126
e 75 129
e 75 135
e 76 77
e 76 84
e 76 98
e 76 103
e 76 105
e 76 113
e 76 125
e 76 126
e 76 133
e 76 135
e 77 81
e 77 85
e 77 87
e 77 92
e 77 95
e 77 96
e 77 102
e 77 103
e 77 104
e 77 106
e 77 111
e 77 113
e 77 114
e 77 118
e 77 120
e 77 123
e 77 124
e 77 126
e 77 129
e 77 130
e 77 132
e 78 82
e 78 86
e 78 88
e 78 92
e 78 94
e 78 99
e 78 100
e 78 107
e 78 110
e 78 116
e 78 122
e 78 130
e 78 131
e 79 85
e 79 87
e 79 90
e 79 93
e 79 97
e 79 98
e 79 106
e 79 115
e 79 118
e 79 124
e 80 87
e 80 89
e 80 90
e 80 91
e 80 95
e 80 97
e 80 98
e 80 101
e 80 108
e 80 111
e 80 113
e 80 114
e 80 120
e 80 123
e 80 124
e 80 126
e 80 127
e 80 129
e 80 131
e 80 133
e 80 135
e 81 83
e 81 88
e 81 90
e 81 93
e 81 95
e 81 101
e 81 102
e 81 106
e 81 108
e 81 110
e 81 118
e 81 125
e 81 130
e 82 83
e 82 84
e 82 86
e 82 92
e 82 99
e 82 106
e 82 111
e 82 114
e 82 119
e 82 122
e 82 129
e 82 135
e 83 84
e 83 97
e 83 98
e 83 100
e 83 102
e 83 103
e 83 107
e 83 109
e 83 111
e 83 116
e 83 117
e 83 131
e 84 92
e 84 101
e 84 104
e 84 108
e 84 109
e 84 117
e 84 118
e 84 120
e 84 121
e 84 125
e 84 126
e 84 127
e 84 133
e 84 135
e 85 86
e 85 90
e 85 103
e 85 107
e 85 112
e 85 114
e 85 128
e 86 87
e 86 90
e 86 98
e 86 102
e 86 105
e 86 108
e 86 109
e 86 112
e 86 127
e 86 128
e 86 131
e 86 134
e 87 88
e 87 89
e 87 98
e 87 100
e 87 102
e 87 108
e 87 115
e 87 135
e 88 93
e 88 94
e 88 95
e 88 103
e 88 110
e 88 115
e 88 119
e 88 124
e 88 128
e 88 133
e 89 90
e 89 93
e 89 98
e 89 100
e 89 110
e 89 111
e 89 121
e 89 124
e 89 129
e 89 133
e 90 97
e 90 100
e 90 104
e 90 106
e 90 114
e 90 122
e 90 126
e 90 128
e 90 130
e 90 134
e 91 94
e 91 95
e 91 98
e 91 105
e 91 114
e 91 120
e 91 125
e 91 131
e 92 93
e 92 94
e 92 96
e 92 97
e 92 108
e 92 113
e 92 116
e 92 121
e 92 123
e 92 129
e 93 95
e 93 104
e 93 111
e 93 118
e 93 122
e 93 125
e 93 129
e 93 132
e 93 133
e 94 110
e 94 111
e 94 113
e 94 135
e 95 99
e 95 109
e 95 110
e 95 115
e 95 118
e 95 126
e 95 129
e 95 131
e 96 98
e 96 99
e 96 103
e 96 114
e 96 131
e 96 132
e 96 134
e 97 100
e 97 107
e 97 108
e 97 113
e 97 123
e 97 127
e 98 104
e 98 116
e 98 126
e 98 129
e 99 101
e 99 115
e 99 116
e 99 122
e 100 102
e 100 108
e 100 116
e 100 123
e 100 129
e 101 107
e 101 114
e 101 117
e 101 131
e 101 135
e 102 110
e 102 113
e 102 116
e 102 119
e 102 127
e 102 129
e 102 130
e 102 135
e 103 104
e 103 109
e 103 119
e 103 126
e 104 110
e 104 117
e 104 120
e 104 125
e 104 133
e 105 116
e 105 120
e 105 132
e 105 135
e 106 125
e 107 112
e 107 118
e 107 121
e 108 128
e 108 130
e 108 135
e 109 118
e 110 112
e 110 117
e 110 121
e 110 124
e 110 134
e 111 114
e 111 115
e 111 117
e 111 127
e 112 117
e 112 121
e 112 122
e 112 128
e 112 133
e 112 134
e 113 121
e 113 130
e 113 132
e 114 115
e 114 119
e 114 122
e 114 135
e 115 123
e 116 123
e 116 125
e 116 127
e 116 132
e 118 124
e 118 132
e 118 133
e 119 122
e 119 123
e 119 125
e 119 128
e 119 130
e 120 131
e 121 123
e 121 125
e 122 127
e 123 132
e 123 133
e 126 128
e 126 132
e 130 131
e 130 135
e 131 132
e 133 134
